\ Model QCP
\ LP format - for model browsing. Use MPS format to capture full model detail.
Minimize
  z + y
Subject To
 Cut_0: z + [ ] >= 840
 Cut_1: z + [ ] >= 840
 Cut_2: z + [ ] >= 840
 Cut_3: z + [ ] >= 840
 Cut_4: z + [ ] >= 840
 Cut_5: z + [ ] >= 840
 Cut_6: z + [ ] >= 840
 Cut_7: z + [ ] >= 840
 Cut_8: z + [ ] >= 840
 Cut_9: z + [ ] >= 840
Bounds
 z = 840
 y = 9.380831519646859
End
